10/12/2018 02:43:30 AM /ajaxs/ajax_search_product.php?q=a&module=warehouse
File :  IP:127.0.0.1 Not connect DB: host: localhost, User : root
10/12/2018 05:42:43 AM /soft/
File :  IP:127.0.0.1 Not connect DB: host: localhost, User : root
